
Gurobi 9.5.1 (linux64) logging started Thu Jun  9 13:11:50 2022

Set parameter LogFile to value "../results/logs/log_facebook_combined_20_250_2022_06_09_13_11.log"
Gurobi Optimizer version 9.5.1 build v9.5.1rc2 (linux64)
Thread count: 8 physical cores, 8 logical processors, using up to 8 threads
Optimize a model with 975 rows, 8078 columns and 29930 nonzeros
Model fingerprint: 0xdf284b8c
Variable types: 0 continuous, 8078 integer (8078 binary)
Coefficient statistics:
  Matrix range     [1e+00, 2e+01]
  Objective range  [1e+00, 1e+00]
  Bounds range     [1e+00, 1e+00]
  RHS range        [1e+00, 2e+02]
Found heuristic solution: objective 1854.0000000
Presolve removed 19 rows and 6414 columns
Presolve time: 0.03s
Presolved: 956 rows, 1664 columns, 17019 nonzeros
Variable types: 0 continuous, 1664 integer (1573 binary)
Found heuristic solution: objective 1904.0000000

Root relaxation: objective 2.313575e+03, 1042 iterations, 0.01 seconds (0.03 work units)

    Nodes    |    Current Node    |     Objective Bounds      |     Work
 Expl Unexpl |  Obj  Depth IntInf | Incumbent    BestBd   Gap | It/Node Time

     0     0 2313.57544    0  184 1904.00000 2313.57544  21.5%     -    0s
H    0     0                    2211.0000000 2313.57544  4.64%     -    0s
H    0     0                    2218.0000000 2313.57544  4.31%     -    0s
H    0     0                    2237.0000000 2303.12529  2.96%     -    0s
     0     0 2301.66648    0  322 2237.00000 2301.66648  2.89%     -    0s
H    0     0                    2239.0000000 2301.66648  2.80%     -    0s
     0     0 2301.47123    0  320 2239.00000 2301.47123  2.79%     -    0s
     0     0 2301.42370    0  327 2239.00000 2301.42370  2.79%     -    0s
     0     0 2301.41759    0  330 2239.00000 2301.41759  2.79%     -    0s
     0     0 2301.41050    0  327 2239.00000 2301.41050  2.79%     -    0s
H    0     0                    2242.0000000 2301.41050  2.65%     -    0s
     0     0 2294.51898    0  386 2242.00000 2294.51898  2.34%     -    0s
H    0     0                    2250.0000000 2291.37834  1.84%     -    0s
     0     0 2291.37834    0  366 2250.00000 2291.37834  1.84%     -    0s
     0     0 2290.58843    0  380 2250.00000 2290.58843  1.80%     -    0s
     0     0 2290.37961    0  373 2250.00000 2290.37961  1.79%     -    0s
     0     0 2290.35954    0  369 2250.00000 2290.35954  1.79%     -    0s
     0     0 2290.35659    0  367 2250.00000 2290.35659  1.79%     -    0s
H    0     0                    2254.0000000 2290.35659  1.61%     -    0s
H    0     0                    2256.0000000 2288.08218  1.42%     -    0s
     0     0 2288.08218    0  364 2256.00000 2288.08218  1.42%     -    0s
H    0     0                    2266.0000000 2288.08218  0.97%     -    0s
     0     0 2286.76522    0  377 2266.00000 2286.76522  0.92%     -    0s
     0     0 2286.19585    0  422 2266.00000 2286.19585  0.89%     -    0s
     0     0 2285.97949    0  422 2266.00000 2285.97949  0.88%     -    0s
     0     0 2285.93075    0  419 2266.00000 2285.93075  0.88%     -    0s
     0     0 2285.91336    0  425 2266.00000 2285.91336  0.88%     -    0s
     0     0 2284.26203    0  406 2266.00000 2284.26203  0.81%     -    0s
     0     0 2283.54685    0  427 2266.00000 2283.54685  0.77%     -    0s
     0     0 2283.13618    0  405 2266.00000 2283.13618  0.76%     -    0s
     0     0 2283.05385    0  418 2266.00000 2283.05385  0.75%     -    0s
     0     0 2282.98639    0  434 2266.00000 2282.98639  0.75%     -    0s
     0     0 2282.96357    0  451 2266.00000 2282.96357  0.75%     -    0s
     0     0 2282.12234    0  401 2266.00000 2282.12234  0.71%     -    0s
H    0     0                    2269.0000000 2282.12234  0.58%     -    0s
     0     0 2281.74734    0  417 2269.00000 2281.74734  0.56%     -    0s
     0     0 2281.63132    0  402 2269.00000 2281.63132  0.56%     -    0s
     0     0 2281.58361    0  422 2269.00000 2281.58361  0.55%     -    0s
     0     0 2281.54758    0  408 2269.00000 2281.54758  0.55%     -    0s
     0     0 2281.53402    0  415 2269.00000 2281.53402  0.55%     -    0s
     0     0 2280.93880    0  383 2269.00000 2280.93880  0.53%     -    0s
     0     0 2280.82619    0  395 2269.00000 2280.82619  0.52%     -    0s
     0     0 2280.69134    0  390 2269.00000 2280.69134  0.52%     -    0s
     0     0 2280.65360    0  400 2269.00000 2280.65360  0.51%     -    0s
     0     0 2280.63769    0  415 2269.00000 2280.63769  0.51%     -    0s
     0     0 2280.27617    0  402 2269.00000 2280.27617  0.50%     -    0s
H    0     0                    2273.0000000 2280.27617  0.32%     -    0s
     0     0 2280.15482    0  445 2273.00000 2280.15482  0.31%     -    1s
     0     0 2280.10991    0  402 2273.00000 2280.10991  0.31%     -    1s
     0     0 2280.07265    0  423 2273.00000 2280.07265  0.31%     -    1s
     0     0 2280.05694    0  434 2273.00000 2280.05694  0.31%     -    1s
     0     0 2279.83763    0  364 2273.00000 2279.83763  0.30%     -    1s
     0     0 2279.75335    0  398 2273.00000 2279.75335  0.30%     -    1s
     0     0 2279.71017    0  381 2273.00000 2279.71017  0.30%     -    1s
     0     0 2279.67711    0  379 2273.00000 2279.67711  0.29%     -    1s
     0     0 2279.53488    0  376 2273.00000 2279.53488  0.29%     -    1s
     0     0 2279.53488    0  362 2273.00000 2279.53488  0.29%     -    1s
H    0     0                    2274.0000000 2279.50383  0.24%     -    1s
     0     2 2279.50383    0  356 2274.00000 2279.50383  0.24%     -    1s
H  700   457                    2275.0000000 2278.65663  0.16%  39.3    2s
  2638   850 2276.34600   10  370 2275.00000 2277.73197  0.12%  53.9    5s
  7702   666 2276.42260   11  301 2275.00000 2276.81754  0.08%  55.4   10s

Cutting planes:
  Gomory: 49
  Cover: 42
  Implied bound: 16
  Clique: 7
  MIR: 310
  StrongCG: 33
  GUB cover: 214
  Zero half: 5
  Mod-K: 2
  RLT: 197
  Relax-and-lift: 13

Explored 9792 nodes (527366 simplex iterations) in 11.23 seconds (16.21 work units)
Thread count was 8 (of 8 available processors)

Solution count 10: 2275 2274 2273 ... 2239

Optimal solution found (tolerance 0.00e+00)
Best objective 2.275000000000e+03, best bound 2.275000000000e+03, gap 0.0000%
